Instance: E253-27k.dat
Class:  1
  252 --- number of customers (no depot)
   27 --- number of vehicles
  252 --- number of items
Capacity - height - width of vehicles
  1000     40     20
Node - x - y - demand
    0     0.0     0.0     0.0
    1     3.0     1.0   300.0
    2     3.0     3.0   300.0
    3     1.0     3.0   300.0
    4    -1.0     3.0   300.0
    5    -3.0     3.0   300.0
    6    -3.0     1.0   300.0
    7    -3.0    -1.0   300.0
    8    -3.0    -3.0   300.0
    9    -1.0    -3.0   300.0
   10     1.0    -3.0   300.0
   11     3.0    -3.0   300.0
   12     3.0    -1.0   300.0
   13     5.0     1.0   180.0
   14     5.0     3.0   180.0
   15     5.0     5.0   180.0
   16     3.0     5.0   180.0
   17     1.0     5.0   180.0
   18    -1.0     5.0   180.0
   19    -3.0     5.0   180.0
   20    -5.0     5.0   180.0
   21    -5.0     3.0   180.0
   22    -5.0     1.0   180.0
   23    -5.0    -1.0   180.0
   24    -5.0    -3.0   180.0
   25    -5.0    -5.0   180.0
   26    -3.0    -5.0   180.0
   27    -1.0    -5.0   180.0
   28     1.0    -5.0   180.0
   29     3.0    -5.0   180.0
   30     5.0    -5.0   180.0
   31     5.0    -3.0   180.0
   32     5.0    -1.0   180.0
   33     7.0     1.0   128.0
   34     7.0     3.0   128.0
   35     7.0     5.0   128.0
   36     7.0     7.0   128.0
   37     5.0     7.0   128.0
   38     3.0     7.0   128.0
   39     1.0     7.0   128.0
   40    -1.0     7.0   128.0
   41    -3.0     7.0   128.0
   42    -5.0     7.0   128.0
   43    -7.0     7.0   128.0
   44    -7.0     5.0   128.0
   45    -7.0     3.0   128.0
   46    -7.0     1.0   128.0
   47    -7.0    -1.0   128.0
   48    -7.0    -3.0   128.0
   49    -7.0    -5.0   128.0
   50    -7.0    -7.0   128.0
   51    -5.0    -7.0   128.0
   52    -3.0    -7.0   128.0
   53    -1.0    -7.0   128.0
   54     1.0    -7.0   128.0
   55     3.0    -7.0   128.0
   56     5.0    -7.0   128.0
   57     7.0    -7.0   128.0
   58     7.0    -5.0   128.0
   59     7.0    -3.0   128.0
   60     7.0    -1.0   128.0
   61     9.0     1.0   100.0
   62     9.0     3.0   100.0
   63     9.0     5.0   100.0
   64     9.0     7.0   100.0
   65     9.0     9.0   100.0
   66     7.0     9.0   100.0
   67     5.0     9.0   100.0
   68     3.0     9.0   100.0
   69     1.0     9.0   100.0
   70    -1.0     9.0   100.0
   71    -3.0     9.0   100.0
   72    -5.0     9.0   100.0
   73    -7.0     9.0   100.0
   74    -9.0     9.0   100.0
   75    -9.0     7.0   100.0
   76    -9.0     5.0   100.0
   77    -9.0     3.0   100.0
   78    -9.0     1.0   100.0
   79    -9.0    -1.0   100.0
   80    -9.0    -3.0   100.0
   81    -9.0    -5.0   100.0
   82    -9.0    -7.0   100.0
   83    -9.0    -9.0   100.0
   84    -7.0    -9.0   100.0
   85    -5.0    -9.0   100.0
   86    -3.0    -9.0   100.0
   87    -1.0    -9.0   100.0
   88     1.0    -9.0   100.0
   89     3.0    -9.0   100.0
   90     5.0    -9.0   100.0
   91     7.0    -9.0   100.0
   92     9.0    -9.0   100.0
   93     9.0    -7.0   100.0
   94     9.0    -5.0   100.0
   95     9.0    -3.0   100.0
   96     9.0    -1.0   100.0
   97    11.0     1.0    81.0
   98    11.0     3.0    81.0
   99    11.0     5.0    81.0
  100    11.0     7.0    81.0
  101    11.0     9.0    81.0
  102    11.0    11.0    81.0
  103     9.0    11.0    81.0
  104     7.0    11.0    81.0
  105     5.0    11.0    81.0
  106     3.0    11.0    81.0
  107     1.0    11.0    81.0
  108    -1.0    11.0    81.0
  109    -3.0    11.0    81.0
  110    -5.0    11.0    81.0
  111    -7.0    11.0    81.0
  112    -9.0    11.0    81.0
  113   -11.0    11.0    81.0
  114   -11.0     9.0    81.0
  115   -11.0     7.0    81.0
  116   -11.0     5.0    81.0
  117   -11.0     3.0    81.0
  118   -11.0     1.0    81.0
  119   -11.0    -1.0    81.0
  120   -11.0    -3.0    81.0
  121   -11.0    -5.0    81.0
  122   -11.0    -7.0    81.0
  123   -11.0    -9.0    81.0
  124   -11.0   -11.0    81.0
  125    -9.0   -11.0    81.0
  126    -7.0   -11.0    81.0
  127    -5.0   -11.0    81.0
  128    -3.0   -11.0    81.0
  129    -1.0   -11.0    81.0
  130     1.0   -11.0    81.0
  131     3.0   -11.0    81.0
  132     5.0   -11.0    81.0
  133     7.0   -11.0    81.0
  134     9.0   -11.0    81.0
  135    11.0   -11.0    81.0
  136    11.0    -9.0    81.0
  137    11.0    -7.0    81.0
  138    11.0    -5.0    81.0
  139    11.0    -3.0    81.0
  140    11.0    -1.0    81.0
  141    13.0     1.0    69.0
  142    13.0     3.0    69.0
  143    13.0     5.0    69.0
  144    13.0     7.0    69.0
  145    13.0     9.0    69.0
  146    13.0    11.0    69.0
  147    13.0    13.0    69.0
  148    11.0    13.0    69.0
  149     9.0    13.0    69.0
  150     7.0    13.0    69.0
  151     5.0    13.0    69.0
  152     3.0    13.0    69.0
  153     1.0    13.0    69.0
  154    -1.0    13.0    69.0
  155    -3.0    13.0    69.0
  156    -5.0    13.0    69.0
  157    -7.0    13.0    69.0
  158    -9.0    13.0    69.0
  159   -11.0    13.0    69.0
  160   -13.0    13.0    69.0
  161   -13.0    11.0    69.0
  162   -13.0     9.0    69.0
  163   -13.0     7.0    69.0
  164   -13.0     5.0    69.0
  165   -13.0     3.0    69.0
  166   -13.0     1.0    69.0
  167   -13.0    -1.0    69.0
  168   -13.0    -3.0    69.0
  169   -13.0    -5.0    69.0
  170   -13.0    -7.0    69.0
  171   -13.0    -9.0    69.0
  172   -13.0   -11.0    69.0
  173   -13.0   -13.0    69.0
  174   -11.0   -13.0    69.0
  175    -9.0   -13.0    69.0
  176    -7.0   -13.0    69.0
  177    -5.0   -13.0    69.0
  178    -3.0   -13.0    69.0
  179    -1.0   -13.0    69.0
  180     1.0   -13.0    69.0
  181     3.0   -13.0    69.0
  182     5.0   -13.0    69.0
  183     7.0   -13.0    69.0
  184     9.0   -13.0    69.0
  185    11.0   -13.0    69.0
  186    13.0   -13.0    69.0
  187    13.0   -11.0    69.0
  188    13.0    -9.0    69.0
  189    13.0    -7.0    69.0
  190    13.0    -5.0    69.0
  191    13.0    -3.0    69.0
  192    13.0    -1.0    69.0
  193    15.0     1.0    60.0
  194    15.0     3.0    60.0
  195    15.0     5.0    60.0
  196    15.0     7.0    60.0
  197    15.0     9.0    60.0
  198    15.0    11.0    60.0
  199    15.0    13.0    60.0
  200    15.0    15.0    60.0
  201    13.0    15.0    60.0
  202    11.0    15.0    60.0
  203     9.0    15.0    60.0
  204     7.0    15.0    60.0
  205     5.0    15.0    60.0
  206     3.0    15.0    60.0
  207     1.0    15.0    60.0
  208    -1.0    15.0    60.0
  209    -3.0    15.0    60.0
  210    -5.0    15.0    60.0
  211    -7.0    15.0    60.0
  212    -9.0    15.0    60.0
  213   -11.0    15.0    60.0
  214   -13.0    15.0    60.0
  215   -15.0    15.0    60.0
  216   -15.0    13.0    60.0
  217   -15.0    11.0    60.0
  218   -15.0     9.0    60.0
  219   -15.0     7.0    60.0
  220   -15.0     5.0    60.0
  221   -15.0     3.0    60.0
  222   -15.0     1.0    60.0
  223   -15.0    -1.0    60.0
  224   -15.0    -3.0    60.0
  225   -15.0    -5.0    60.0
  226   -15.0    -7.0    60.0
  227   -15.0    -9.0    60.0
  228   -15.0   -11.0    60.0
  229   -15.0   -13.0    60.0
  230   -15.0   -15.0    60.0
  231   -13.0   -15.0    60.0
  232   -11.0   -15.0    60.0
  233    -9.0   -15.0    60.0
  234    -7.0   -15.0    60.0
  235    -5.0   -15.0    60.0
  236    -3.0   -15.0    60.0
  237    -1.0   -15.0    60.0
  238     1.0   -15.0    60.0
  239     3.0   -15.0    60.0
  240     5.0   -15.0    60.0
  241     7.0   -15.0    60.0
  242     9.0   -15.0    60.0
  243    11.0   -15.0    60.0
  244    13.0   -15.0    60.0
  245    15.0   -15.0    60.0
  246    15.0   -13.0    60.0
  247    15.0   -11.0    60.0
  248    15.0    -9.0    60.0
  249    15.0    -7.0    60.0
  250    15.0    -5.0    60.0
  251    15.0    -3.0    60.0
  252    15.0    -1.0    60.0
Node - number of items - h - w for each item
    0   0
    1   1    1    1
    2   1    1    1
    3   1    1    1
    4   1    1    1
    5   1    1    1
    6   1    1    1
    7   1    1    1
    8   1    1    1
    9   1    1    1
   10   1    1    1
   11   1    1    1
   12   1    1    1
   13   1    1    1
   14   1    1    1
   15   1    1    1
   16   1    1    1
   17   1    1    1
   18   1    1    1
   19   1    1    1
   20   1    1    1
   21   1    1    1
   22   1    1    1
   23   1    1    1
   24   1    1    1
   25   1    1    1
   26   1    1    1
   27   1    1    1
   28   1    1    1
   29   1    1    1
   30   1    1    1
   31   1    1    1
   32   1    1    1
   33   1    1    1
   34   1    1    1
   35   1    1    1
   36   1    1    1
   37   1    1    1
   38   1    1    1
   39   1    1    1
   40   1    1    1
   41   1    1    1
   42   1    1    1
   43   1    1    1
   44   1    1    1
   45   1    1    1
   46   1    1    1
   47   1    1    1
   48   1    1    1
   49   1    1    1
   50   1    1    1
   51   1    1    1
   52   1    1    1
   53   1    1    1
   54   1    1    1
   55   1    1    1
   56   1    1    1
   57   1    1    1
   58   1    1    1
   59   1    1    1
   60   1    1    1
   61   1    1    1
   62   1    1    1
   63   1    1    1
   64   1    1    1
   65   1    1    1
   66   1    1    1
   67   1    1    1
   68   1    1    1
   69   1    1    1
   70   1    1    1
   71   1    1    1
   72   1    1    1
   73   1    1    1
   74   1    1    1
   75   1    1    1
   76   1    1    1
   77   1    1    1
   78   1    1    1
   79   1    1    1
   80   1    1    1
   81   1    1    1
   82   1    1    1
   83   1    1    1
   84   1    1    1
   85   1    1    1
   86   1    1    1
   87   1    1    1
   88   1    1    1
   89   1    1    1
   90   1    1    1
   91   1    1    1
   92   1    1    1
   93   1    1    1
   94   1    1    1
   95   1    1    1
   96   1    1    1
   97   1    1    1
   98   1    1    1
   99   1    1    1
  100   1    1    1
  101   1    1    1
  102   1    1    1
  103   1    1    1
  104   1    1    1
  105   1    1    1
  106   1    1    1
  107   1    1    1
  108   1    1    1
  109   1    1    1
  110   1    1    1
  111   1    1    1
  112   1    1    1
  113   1    1    1
  114   1    1    1
  115   1    1    1
  116   1    1    1
  117   1    1    1
  118   1    1    1
  119   1    1    1
  120   1    1    1
  121   1    1    1
  122   1    1    1
  123   1    1    1
  124   1    1    1
  125   1    1    1
  126   1    1    1
  127   1    1    1
  128   1    1    1
  129   1    1    1
  130   1    1    1
  131   1    1    1
  132   1    1    1
  133   1    1    1
  134   1    1    1
  135   1    1    1
  136   1    1    1
  137   1    1    1
  138   1    1    1
  139   1    1    1
  140   1    1    1
  141   1    1    1
  142   1    1    1
  143   1    1    1
  144   1    1    1
  145   1    1    1
  146   1    1    1
  147   1    1    1
  148   1    1    1
  149   1    1    1
  150   1    1    1
  151   1    1    1
  152   1    1    1
  153   1    1    1
  154   1    1    1
  155   1    1    1
  156   1    1    1
  157   1    1    1
  158   1    1    1
  159   1    1    1
  160   1    1    1
  161   1    1    1
  162   1    1    1
  163   1    1    1
  164   1    1    1
  165   1    1    1
  166   1    1    1
  167   1    1    1
  168   1    1    1
  169   1    1    1
  170   1    1    1
  171   1    1    1
  172   1    1    1
  173   1    1    1
  174   1    1    1
  175   1    1    1
  176   1    1    1
  177   1    1    1
  178   1    1    1
  179   1    1    1
  180   1    1    1
  181   1    1    1
  182   1    1    1
  183   1    1    1
  184   1    1    1
  185   1    1    1
  186   1    1    1
  187   1    1    1
  188   1    1    1
  189   1    1    1
  190   1    1    1
  191   1    1    1
  192   1    1    1
  193   1    1    1
  194   1    1    1
  195   1    1    1
  196   1    1    1
  197   1    1    1
  198   1    1    1
  199   1    1    1
  200   1    1    1
  201   1    1    1
  202   1    1    1
  203   1    1    1
  204   1    1    1
  205   1    1    1
  206   1    1    1
  207   1    1    1
  208   1    1    1
  209   1    1    1
  210   1    1    1
  211   1    1    1
  212   1    1    1
  213   1    1    1
  214   1    1    1
  215   1    1    1
  216   1    1    1
  217   1    1    1
  218   1    1    1
  219   1    1    1
  220   1    1    1
  221   1    1    1
  222   1    1    1
  223   1    1    1
  224   1    1    1
  225   1    1    1
  226   1    1    1
  227   1    1    1
  228   1    1    1
  229   1    1    1
  230   1    1    1
  231   1    1    1
  232   1    1    1
  233   1    1    1
  234   1    1    1
  235   1    1    1
  236   1    1    1
  237   1    1    1
  238   1    1    1
  239   1    1    1
  240   1    1    1
  241   1    1    1
  242   1    1    1
  243   1    1    1
  244   1    1    1
  245   1    1    1
  246   1    1    1
  247   1    1    1
  248   1    1    1
  249   1    1    1
  250   1    1    1
  251   1    1    1
  252   1    1    1
